p cnf 36 100
a 11 6 0
e 1 2 3 4 5 7 8 9 10 12 13 14 15 16 17 18 19 20 21 22 23 24 25 26 27 28 29 30 31 32 33 34 35 36 0
2 -3 -4 0
-2 3 -4 0
2 3 4 0
-2 -3 4 0
5 -1 0
5 -4 0
1 4 -5 0
7 -6 0
7 2 0
6 -2 -7 0
-8 -1 0
-8 7 0
1 -7 8 0
9 -7 0
9 -8 0
7 8 -9 0
5 -9 -10 0
-5 9 -10 0
5 9 10 0
-5 -9 10 0
-12 -1 0
-12 11 0
1 -11 12 0
13 -10 0
13 -12 0
10 12 -13 0
-3 2 -14 0
3 -2 -14 0
-3 -2 14 0
3 2 14 0
-15 -14 0
-15 7 0
14 -7 15 0
9 -6 -17 0
-9 6 -17 0
9 6 17 0
-9 -6 17 0
16 17 -18 0
-16 -17 -18 0
16 -17 18 0
-16 17 18 0
19 15 0
19 -18 0
-15 18 -19 0
-20 -2 0
-20 -14 0
2 14 20 0
19 20 -21 0
-19 -20 -21 0
19 -20 21 0
-19 20 21 0
23 -22 0
23 2 0
22 -2 -23 0
24 -2 0
24 23 0
2 -23 -24 0
25 21 0
25 24 0
-21 -24 -25 0
13 25 -26 0
-13 -25 -26 0
13 -25 26 0
-13 25 26 0
-5 -27 0
5 -27 0
-28 14 0
-28 -14 0
29 -5 0
29 28 0
5 -28 -29 0
30 27 0
30 29 0
-27 -29 -30 0
-26 -30 -31 0
26 30 -31 0
-26 30 31 0
26 -30 31 0
-33 23 0
-33 32 0
-23 -32 33 0
-34 -1 0
-34 -4 0
1 4 34 0
35 -33 0
35 34 0
33 -34 -35 0
-36 -31 0
-36 -35 0
31 35 36 0
17 -1 -35 -24 -11 -25 0
35 20 28 0
-13 -11 19 16 -35 25 -29 -33 0
-9 -4 -36 6 30 24 -35 0
-1 10 -8 -5 -4 0
6 35 -16 0
-23 20 -13 -18 0
28 12 30 0
-14 13 36 -28 35 -10 -18 0
36 0
